interdiction/MCDM/NO_CORR/GEN_FROM_60/15_ITEMS_1000_GEN/K5015W11.KNP.mps
NAME          BLANK   
ROWS
 N  OBJROW
 L  R0000000
COLUMNS
    C0000000  OBJROW     -796.         R0000000  957.        
    C0000001  OBJROW     -316.         R0000000  3.          
    C0000002  OBJROW     -375.         R0000000  536.        
    C0000003  OBJROW     -439.         R0000000  830.        
    C0000004  OBJROW     -388.         R0000000  428.        
    C0000005  OBJROW     -426.         R0000000  726.        
    C0000006  OBJROW     -62.          R0000000  198.        
    C0000007  OBJROW     -889.         R0000000  238.        
    C0000008  OBJROW     -417.         R0000000  507.        
    C0000009  OBJROW     -554.         R0000000  994.        
    C0000010  OBJROW     -619.         R0000000  727.        
    C0000011  OBJROW     -149.         R0000000  955.        
    C0000012  OBJROW     -668.         R0000000  232.        
    C0000013  OBJROW     -709.         R0000000  49.         
    C0000014  OBJROW     -152.         R0000000  449.        
RHS
    RHS       R0000000  15060.      
BOUNDS
 BV BOUND     C0000000  1.          
 BV BOUND     C0000001  1.          
 BV BOUND     C0000002  1.          
 BV BOUND     C0000003  1.          
 BV BOUND     C0000004  1.          
 BV BOUND     C0000005  1.          
 BV BOUND     C0000006  1.          
 BV BOUND     C0000007  1.          
 BV BOUND     C0000008  1.          
 BV BOUND     C0000009  1.          
 BV BOUND     C0000010  1.          
 BV BOUND     C0000011  1.          
 BV BOUND     C0000012  1.          
 BV BOUND     C0000013  1.          
 BV BOUND     C0000014  1.          
ENDATA
