data/MCDM/NO_CORR/GEN_FROM_60/15_ITEMS_1000_GEN/K5015W11.KNP.txt
N 15
M 16
LC 15
LC 16
LC 17
LC 18
LC 19
LC 20
LC 21
LC 22
LC 23
LC 24
LC 25
LC 26
LC 27
LC 28
LC 29
LR 1
LR 2
LR 3
LR 4
LR 5
LR 6
LR 7
LR 8
LR 9
LR 10
LR 11
LR 12
LR 13
LR 14
LR 15
LR 16
LO -796
LO -316
LO -375
LO -439
LO -388
LO -426
LO -62
LO -889
LO -417
LO -554
LO -619
LO -149
LO -668
LO -709
LO -152
OS 1
IC 477
IC 485
IC 933
IC 173
IC 141
IC 306
IC 520
IC 767
IC 17
IC 98
IC 191
IC 491
IC 480
IC 145
IC 691
IB 2958
